60

  0    1    2    3    1    2    3    4    2    3    4    5    3    4    5    6    4    5    6    7    5    6    7    8    6    7    8    9    7    8    9   10    8    9   10   11    9   10   11   12   10   11   12   13   11   12   13   14   12   13   14   15   13   14   15   16   14   15   16   17  
  1    0    1    2    2    1    2    3    3    2    3    4    4    3    4    5    5    4    5    6    6    5    6    7    7    6    7    8    8    7    8    9    9    8    9   10   10    9   10   11   11   10   11   12   12   11   12   13   13   12   13   14   14   13   14   15   15   14   15   16  
  2    1    0    1    3    2    1    2    4    3    2    3    5    4    3    4    6    5    4    5    7    6    5    6    8    7    6    7    9    8    7    8   10    9    8    9   11   10    9   10   12   11   10   11   13   12   11   12   14   13   12   13   15   14   13   14   16   15   14   15  
  3    2    1    0    4    3    2    1    5    4    3    2    6    5    4    3    7    6    5    4    8    7    6    5    9    8    7    6   10    9    8    7   11   10    9    8   12   11   10    9   13   12   11   10   14   13   12   11   15   14   13   12   16   15   14   13   17   16   15   14  
  1    2    3    4    0    1    2    3    1    2    3    4    2    3    4    5    3    4    5    6    4    5    6    7    5    6    7    8    6    7    8    9    7    8    9   10    8    9   10   11    9   10   11   12   10   11   12   13   11   12   13   14   12   13   14   15   13   14   15   16  
  2    1    2    3    1    0    1    2    2    1    2    3    3    2    3    4    4    3    4    5    5    4    5    6    6    5    6    7    7    6    7    8    8    7    8    9    9    8    9   10   10    9   10   11   11   10   11   12   12   11   12   13   13   12   13   14   14   13   14   15  
  3    2    1    2    2    1    0    1    3    2    1    2    4    3    2    3    5    4    3    4    6    5    4    5    7    6    5    6    8    7    6    7    9    8    7    8   10    9    8    9   11   10    9   10   12   11   10   11   13   12   11   12   14   13   12   13   15   14   13   14  
  4    3    2    1    3    2    1    0    4    3    2    1    5    4    3    2    6    5    4    3    7    6    5    4    8    7    6    5    9    8    7    6   10    9    8    7   11   10    9    8   12   11   10    9   13   12   11   10   14   13   12   11   15   14   13   12   16   15   14   13  
  2    3    4    5    1    2    3    4    0    1    2    3    1    2    3    4    2    3    4    5    3    4    5    6    4    5    6    7    5    6    7    8    6    7    8    9    7    8    9   10    8    9   10   11    9   10   11   12   10   11   12   13   11   12   13   14   12   13   14   15  
  3    2    3    4    2    1    2    3    1    0    1    2    2    1    2    3    3    2    3    4    4    3    4    5    5    4    5    6    6    5    6    7    7    6    7    8    8    7    8    9    9    8    9   10   10    9   10   11   11   10   11   12   12   11   12   13   13   12   13   14  
  4    3    2    3    3    2    1    2    2    1    0    1    3    2    1    2    4    3    2    3    5    4    3    4    6    5    4    5    7    6    5    6    8    7    6    7    9    8    7    8   10    9    8    9   11   10    9   10   12   11   10   11   13   12   11   12   14   13   12   13  
  5    4    3    2    4    3    2    1    3    2    1    0    4    3    2    1    5    4    3    2    6    5    4    3    7    6    5    4    8    7    6    5    9    8    7    6   10    9    8    7   11   10    9    8   12   11   10    9   13   12   11   10   14   13   12   11   15   14   13   12  
  3    4    5    6    2    3    4    5    1    2    3    4    0    1    2    3    1    2    3    4    2    3    4    5    3    4    5    6    4    5    6    7    5    6    7    8    6    7    8    9    7    8    9   10    8    9   10   11    9   10   11   12   10   11   12   13   11   12   13   14  
  4    3    4    5    3    2    3    4    2    1    2    3    1    0    1    2    2    1    2    3    3    2    3    4    4    3    4    5    5    4    5    6    6    5    6    7    7    6    7    8    8    7    8    9    9    8    9   10   10    9   10   11   11   10   11   12   12   11   12   13  
  5    4    3    4    4    3    2    3    3    2    1    2    2    1    0    1    3    2    1    2    4    3    2    3    5    4    3    4    6    5    4    5    7    6    5    6    8    7    6    7    9    8    7    8   10    9    8    9   11   10    9   10   12   11   10   11   13   12   11   12  
  6    5    4    3    5    4    3    2    4    3    2    1    3    2    1    0    4    3    2    1    5    4    3    2    6    5    4    3    7    6    5    4    8    7    6    5    9    8    7    6   10    9    8    7   11   10    9    8   12   11   10    9   13   12   11   10   14   13   12   11  
  4    5    6    7    3    4    5    6    2    3    4    5    1    2    3    4    0    1    2    3    1    2    3    4    2    3    4    5    3    4    5    6    4    5    6    7    5    6    7    8    6    7    8    9    7    8    9   10    8    9   10   11    9   10   11   12   10   11   12   13  
  5    4    5    6    4    3    4    5    3    2    3    4    2    1    2    3    1    0    1    2    2    1    2    3    3    2    3    4    4    3    4    5    5    4    5    6    6    5    6    7    7    6    7    8    8    7    8    9    9    8    9   10   10    9   10   11   11   10   11   12  
  6    5    4    5    5    4    3    4    4    3    2    3    3    2    1    2    2    1    0    1    3    2    1    2    4    3    2    3    5    4    3    4    6    5    4    5    7    6    5    6    8    7    6    7    9    8    7    8   10    9    8    9   11   10    9   10   12   11   10   11  
  7    6    5    4    6    5    4    3    5    4    3    2    4    3    2    1    3    2    1    0    4    3    2    1    5    4    3    2    6    5    4    3    7    6    5    4    8    7    6    5    9    8    7    6   10    9    8    7   11   10    9    8   12   11   10    9   13   12   11   10  
  5    6    7    8    4    5    6    7    3    4    5    6    2    3    4    5    1    2    3    4    0    1    2    3    1    2    3    4    2    3    4    5    3    4    5    6    4    5    6    7    5    6    7    8    6    7    8    9    7    8    9   10    8    9   10   11    9   10   11   12  
  6    5    6    7    5    4    5    6    4    3    4    5    3    2    3    4    2    1    2    3    1    0    1    2    2    1    2    3    3    2    3    4    4    3    4    5    5    4    5    6    6    5    6    7    7    6    7    8    8    7    8    9    9    8    9   10   10    9   10   11  
  7    6    5    6    6    5    4    5    5    4    3    4    4    3    2    3    3    2    1    2    2    1    0    1    3    2    1    2    4    3    2    3    5    4    3    4    6    5    4    5    7    6    5    6    8    7    6    7    9    8    7    8   10    9    8    9   11   10    9   10  
  8    7    6    5    7    6    5    4    6    5    4    3    5    4    3    2    4    3    2    1    3    2    1    0    4    3    2    1    5    4    3    2    6    5    4    3    7    6    5    4    8    7    6    5    9    8    7    6   10    9    8    7   11   10    9    8   12   11   10    9  
  6    7    8    9    5    6    7    8    4    5    6    7    3    4    5    6    2    3    4    5    1    2    3    4    0    1    2    3    1    2    3    4    2    3    4    5    3    4    5    6    4    5    6    7    5    6    7    8    6    7    8    9    7    8    9   10    8    9   10   11  
  7    6    7    8    6    5    6    7    5    4    5    6    4    3    4    5    3    2    3    4    2    1    2    3    1    0    1    2    2    1    2    3    3    2    3    4    4    3    4    5    5    4    5    6    6    5    6    7    7    6    7    8    8    7    8    9    9    8    9   10  
  8    7    6    7    7    6    5    6    6    5    4    5    5    4    3    4    4    3    2    3    3    2    1    2    2    1    0    1    3    2    1    2    4    3    2    3    5    4    3    4    6    5    4    5    7    6    5    6    8    7    6    7    9    8    7    8   10    9    8    9  
  9    8    7    6    8    7    6    5    7    6    5    4    6    5    4    3    5    4    3    2    4    3    2    1    3    2    1    0    4    3    2    1    5    4    3    2    6    5    4    3    7    6    5    4    8    7    6    5    9    8    7    6   10    9    8    7   11   10    9    8  
  7    8    9   10    6    7    8    9    5    6    7    8    4    5    6    7    3    4    5    6    2    3    4    5    1    2    3    4    0    1    2    3    1    2    3    4    2    3    4    5    3    4    5    6    4    5    6    7    5    6    7    8    6    7    8    9    7    8    9   10  
  8    7    8    9    7    6    7    8    6    5    6    7    5    4    5    6    4    3    4    5    3    2    3    4    2    1    2    3    1    0    1    2    2    1    2    3    3    2    3    4    4    3    4    5    5    4    5    6    6    5    6    7    7    6    7    8    8    7    8    9  
  9    8    7    8    8    7    6    7    7    6    5    6    6    5    4    5    5    4    3    4    4    3    2    3    3    2    1    2    2    1    0    1    3    2    1    2    4    3    2    3    5    4    3    4    6    5    4    5    7    6    5    6    8    7    6    7    9    8    7    8  
 10    9    8    7    9    8    7    6    8    7    6    5    7    6    5    4    6    5    4    3    5    4    3    2    4    3    2    1    3    2    1    0    4    3    2    1    5    4    3    2    6    5    4    3    7    6    5    4    8    7    6    5    9    8    7    6   10    9    8    7  
  8    9   10   11    7    8    9   10    6    7    8    9    5    6    7    8    4    5    6    7    3    4    5    6    2    3    4    5    1    2    3    4    0    1    2    3    1    2    3    4    2    3    4    5    3    4    5    6    4    5    6    7    5    6    7    8    6    7    8    9  
  9    8    9   10    8    7    8    9    7    6    7    8    6    5    6    7    5    4    5    6    4    3    4    5    3    2    3    4    2    1    2    3    1    0    1    2    2    1    2    3    3    2    3    4    4    3    4    5    5    4    5    6    6    5    6    7    7    6    7    8  
 10    9    8    9    9    8    7    8    8    7    6    7    7    6    5    6    6    5    4    5    5    4    3    4    4    3    2    3    3    2    1    2    2    1    0    1    3    2    1    2    4    3    2    3    5    4    3    4    6    5    4    5    7    6    5    6    8    7    6    7  
 11   10    9    8   10    9    8    7    9    8    7    6    8    7    6    5    7    6    5    4    6    5    4    3    5    4    3    2    4    3    2    1    3    2    1    0    4    3    2    1    5    4    3    2    6    5    4    3    7    6    5    4    8    7    6    5    9    8    7    6  
  9   10   11   12    8    9   10   11    7    8    9   10    6    7    8    9    5    6    7    8    4    5    6    7    3    4    5    6    2    3    4    5    1    2    3    4    0    1    2    3    1    2    3    4    2    3    4    5    3    4    5    6    4    5    6    7    5    6    7    8  
 10    9   10   11    9    8    9   10    8    7    8    9    7    6    7    8    6    5    6    7    5    4    5    6    4    3    4    5    3    2    3    4    2    1    2    3    1    0    1    2    2    1    2    3    3    2    3    4    4    3    4    5    5    4    5    6    6    5    6    7  
 11   10    9   10   10    9    8    9    9    8    7    8    8    7    6    7    7    6    5    6    6    5    4    5    5    4    3    4    4    3    2    3    3    2    1    2    2    1    0    1    3    2    1    2    4    3    2    3    5    4    3    4    6    5    4    5    7    6    5    6  
 12   11   10    9   11   10    9    8   10    9    8    7    9    8    7    6    8    7    6    5    7    6    5    4    6    5    4    3    5    4    3    2    4    3    2    1    3    2    1    0    4    3    2    1    5    4    3    2    6    5    4    3    7    6    5    4    8    7    6    5  
 10   11   12   13    9   10   11   12    8    9   10   11    7    8    9   10    6    7    8    9    5    6    7    8    4    5    6    7    3    4    5    6    2    3    4    5    1    2    3    4    0    1    2    3    1    2    3    4    2    3    4    5    3    4    5    6    4    5    6    7  
 11   10   11   12   10    9   10   11    9    8    9   10    8    7    8    9    7    6    7    8    6    5    6    7    5    4    5    6    4    3    4    5    3    2    3    4    2    1    2    3    1    0    1    2    2    1    2    3    3    2    3    4    4    3    4    5    5    4    5    6  
 12   11   10   11   11   10    9   10   10    9    8    9    9    8    7    8    8    7    6    7    7    6    5    6    6    5    4    5    5    4    3    4    4    3    2    3    3    2    1    2    2    1    0    1    3    2    1    2    4    3    2    3    5    4    3    4    6    5    4    5  
 13   12   11   10   12   11   10    9   11   10    9    8   10    9    8    7    9    8    7    6    8    7    6    5    7    6    5    4    6    5    4    3    5    4    3    2    4    3    2    1    3    2    1    0    4    3    2    1    5    4    3    2    6    5    4    3    7    6    5    4  
 11   12   13   14   10   11   12   13    9   10   11   12    8    9   10   11    7    8    9   10    6    7    8    9    5    6    7    8    4    5    6    7    3    4    5    6    2    3    4    5    1    2    3    4    0    1    2    3    1    2    3    4    2    3    4    5    3    4    5    6  
 12   11   12   13   11   10   11   12   10    9   10   11    9    8    9   10    8    7    8    9    7    6    7    8    6    5    6    7    5    4    5    6    4    3    4    5    3    2    3    4    2    1    2    3    1    0    1    2    2    1    2    3    3    2    3    4    4    3    4    5  
 13   12   11   12   12   11   10   11   11   10    9   10   10    9    8    9    9    8    7    8    8    7    6    7    7    6    5    6    6    5    4    5    5    4    3    4    4    3    2    3    3    2    1    2    2    1    0    1    3    2    1    2    4    3    2    3    5    4    3    4  
 14   13   12   11   13   12   11   10   12   11   10    9   11   10    9    8   10    9    8    7    9    8    7    6    8    7    6    5    7    6    5    4    6    5    4    3    5    4    3    2    4    3    2    1    3    2    1    0    4    3    2    1    5    4    3    2    6    5    4    3  
 12   13   14   15   11   12   13   14   10   11   12   13    9   10   11   12    8    9   10   11    7    8    9   10    6    7    8    9    5    6    7    8    4    5    6    7    3    4    5    6    2    3    4    5    1    2    3    4    0    1    2    3    1    2    3    4    2    3    4    5  
 13   12   13   14   12   11   12   13   11   10   11   12   10    9   10   11    9    8    9   10    8    7    8    9    7    6    7    8    6    5    6    7    5    4    5    6    4    3    4    5    3    2    3    4    2    1    2    3    1    0    1    2    2    1    2    3    3    2    3    4  
 14   13   12   13   13   12   11   12   12   11   10   11   11   10    9   10   10    9    8    9    9    8    7    8    8    7    6    7    7    6    5    6    6    5    4    5    5    4    3    4    4    3    2    3    3    2    1    2    2    1    0    1    3    2    1    2    4    3    2    3  
 15   14   13   12   14   13   12   11   13   12   11   10   12   11   10    9   11   10    9    8   10    9    8    7    9    8    7    6    8    7    6    5    7    6    5    4    6    5    4    3    5    4    3    2    4    3    2    1    3    2    1    0    4    3    2    1    5    4    3    2  
 13   14   15   16   12   13   14   15   11   12   13   14   10   11   12   13    9   10   11   12    8    9   10   11    7    8    9   10    6    7    8    9    5    6    7    8    4    5    6    7    3    4    5    6    2    3    4    5    1    2    3    4    0    1    2    3    1    2    3    4  
 14   13   14   15   13   12   13   14   12   11   12   13   11   10   11   12   10    9   10   11    9    8    9   10    8    7    8    9    7    6    7    8    6    5    6    7    5    4    5    6    4    3    4    5    3    2    3    4    2    1    2    3    1    0    1    2    2    1    2    3  
 15   14   13   14   14   13   12   13   13   12   11   12   12   11   10   11   11   10    9   10   10    9    8    9    9    8    7    8    8    7    6    7    7    6    5    6    6    5    4    5    5    4    3    4    4    3    2    3    3    2    1    2    2    1    0    1    3    2    1    2  
 16   15   14   13   15   14   13   12   14   13   12   11   13   12   11   10   12   11   10    9   11   10    9    8   10    9    8    7    9    8    7    6    8    7    6    5    7    6    5    4    6    5    4    3    5    4    3    2    4    3    2    1    3    2    1    0    4    3    2    1  
 14   15   16   17   13   14   15   16   12   13   14   15   11   12   13   14   10   11   12   13    9   10   11   12    8    9   10   11    7    8    9   10    6    7    8    9    5    6    7    8    4    5    6    7    3    4    5    6    2    3    4    5    1    2    3    4    0    1    2    3  
 15   14   15   16   14   13   14   15   13   12   13   14   12   11   12   13   11   10   11   12   10    9   10   11    9    8    9   10    8    7    8    9    7    6    7    8    6    5    6    7    5    4    5    6    4    3    4    5    3    2    3    4    2    1    2    3    1    0    1    2  
 16   15   14   15   15   14   13   14   14   13   12   13   13   12   11   12   12   11   10   11   11   10    9   10   10    9    8    9    9    8    7    8    8    7    6    7    7    6    5    6    6    5    4    5    5    4    3    4    4    3    2    3    3    2    1    2    2    1    0    1  
 17   16   15   14   16   15   14   13   15   14   13   12   14   13   12   11   13   12   11   10   12   11   10    9   11   10    9    8   10    9    8    7    9    8    7    6    8    7    6    5    7    6    5    4    6    5    4    3    5    4    3    2    4    3    2    1    3    2    1    0  

  0    0   92   98   15    0    0    0   41    0   19   10    0   75    0    1   35   23    0    1    0   22    5    0   22    0    0    0   70   65    0    0    0   12   85    0    0   48    1    0    0   45    0   17    0    0   41    0   74    9    0    0   38    0   34   63    1    0    0    5  
  0    0    0    0    0   58    5   15    0   53    0    0   65    0   92   39    0    0   34    0    0    0    0   56    0   56    0   36    0    0   48   48    0    0    0    1    0    0    0   23    0   46   39    0    0   54   77   17    0   55    0   48    0    0    0   31    0    6   87    0  
 55    0    0   29    0    0    0    0    0    0    0   54   65   89    0   54    0   78   85   36   85   87    0   82   37    0   64   22   85    0    0   35   78   62   74    0   82    0   44    0   31   13    0    0    1    0   71    0   55    0    0    0   42    0    3   77    0    0    0   51  
 77    0   22    0    0    0    0    0   31    0    0   11   41   74    1   85   15    2   66   45    1   15    0   81    3    0    3    0   14   85    0    0   25   70    4    0   24    0    2    0   24   62    0   74    0    0   18    0   79    0   22    0    8    0   79   58    0    0    0    8  
  0    0    2    0    0    0    0  100   23    0   34    0    0    0    0    0   74   17  100    0    0    0   28    0    0    0    0    0    0   91    0    0    0    0   23   10    0    0    0   38    0    0    3    3    0    0    0    0    0   86    0   40   28    7    7    0   41   27    0    0  
  0   51    0    0    0    0   83    0    0   43    0    0    0    0    5    0    0    0    0    0    0    0    0   27    0   60    0    1    0    0   23   17    0    0    0    0    0   75    0   62    0   13    8    0    0    1   29    1    0    0   25    0    0    0    0    0    0    0   99    0  
  0   70    0    0    0   63    0   40    0    5    0    0    8    0   61   86    0    0    0   67    4    0    0   10    0   48    0   27    0    0   79   14   21    0    0    0   86    9    0    0    0   72   44   60   15    3    1   17    0   44   18   64    0    0    0   96    0    0   77    0  
  0   16   99    0   18    0    0    0    3    0   93   90    0    0   51    3   19    0    0    0    0    0   69    0    0    0    0   91    0   62   89   91    0    0    0    6    0    0    0   18    0    4   16   17    0    0    1    0    9    3    0   75    4    3    0   76   36   26    0    0  
 94    0    0   26    1    0    0   81    0    0   60   30    0   38    0    3   84    5    0   37    0   91    2    0   24    0    0    0   52    1    0   34    0   59   10    0    0    0   31   74    0    1    0   76    0    0   25    0   24   54    0    0   55    0   31    8    2   42    0    0  
  0   31   20    0    0   10   63    0    0    0    0    0    0    0   66    0    0    0    0    0    0    0    0    0    0   25    0    5    0    0   11   24    0    0    0   22    0    0    0    0    0    0    8    0    0   70    0   17    0    0    0   95    0    0    0    0    0    0   61    0  
 56    0    0    0    9    0    0    7   23    0    0    0    0    0    0   38   21    0    0   38   60   60   74    0    0    0    0    0    0    8    0    0    0    7    0   14    0    0    0   14    0   63    0   22    0    0    0    0    0   92    0   49   70   38   92    0    3   22    0    0  
  5    0    2    2    0    0    0    0    7    0    0    0    1   35    0    0   40   50   45   27    0   52    0    0   57    0   67    0   14   48    0    0    0   62   67    0   48    0   57    0    0    0    0    0    0    0    0    0   51    0    0   79   26    0    8   11    0    0    0    1  
  0    0   75   42    0    0   80    0    0    0    0   89    0    0    0   37    0   14   36    0   12    0    0   41   39    0   12   23   79    0    0    8   95    0    0    0    1   65    0    0   15    7    0    0   18   44   52    6   76   87   33    0    0    0    0   51    0    0   24    7  
  6    0   46   94    0    6    0    0   27    0    0    7    0    0    0   49   82   45    0   89    0   45   20    0   59    0    0    0   13   67    0    0    0   24   19    0   50    0   57    0   93   30    0   92    0    0   92    0    1    0    0    0   13    0   83   47   99    0    0   44  
  0   31    0    0    0   79   49   84    0   30    0    0    0    0    0   56    0    0    0    0    0    0    1   57   49    3    0   74   80    0   16   27    0    0    0   11    0    0    0    0    0    9   23   34    0   42   10   51   25   41    0   58   39    0    0   13   37   90   67    0  
 85    2   23   83    0    0   43   28    1    0   22    0    9   86   34    0   24    8    3   17   22   79   26   58   78    0   93   42   89    8   96   42   50   92    0   86    1    1    0    0    0    1    6    6    0   22   80    0   41   40   85   35   36    0    6   17   18   38   34    0  
 42    0    0  100   75    0    0   35    5    0   80   97    0   98    0   51    0   77    0   54    0   28   13    0   36   28    0    0   87   19    0    0    0    1   35    0    0    0    3   73    0   86    0   52    0    0  100    0   32   65    0    0   52    0   17   64   12    0    0    0  
 27    0   89    6    0    0    0    0   88    0    0   20    9   58    0   52   80    0   35   95   88    1    0   36    4   35   39   45   23   92    0    0    1   41   12    0   59    0    5    0   58    3    0    0   75    0   60    0   53    0    0    0   88    0   80    5    0    0    1   29  
  0    0   68   23    0    0    0    0    0    0    0   61   17    0    0   58    0   98    0    0   81    0    0    4   29    0   12   29   73    6    0   72   91    0    0    0   61   22    0    0   25    1    0    0   26    0    9    0   76    0   43    0   67    0    0    6    0    0   77   28  
 32    0    9   81    0    0    0    0   55    0    1   71    0   10    0   98    3   16    0    0    0   32   37    0   16    0    0    0  100   84    0    0    0   34   74    0    0    0   25    0    0    0    0   36    0    0    0    0   32    0    0   35   32    0    9   38    3    0    0   97  
  0    0    4   84    0    0   87    0    0    0    0    0    1    0    0   35    0   28   85    0    0    0    0    5   63    0   96    2   38    0    0   79   82    0    0    0   33   81    0    0   66    1   59    0   70   44   24    8    4    0   23    0    0    0    0   63    0    0   71    0  
 92    0   53   18    0    0    0    0    4    0   51   70    0   69    0   95   66    1    0   44    0    0   32    0   82    8    0    0   80   98    0    0    0   74   46    0    0    0   44    0    0   48    0   10    0    0   52    0   62    0    0    0   82    0   14    2   52    0    0   85  
  2    0    0    0    4    0    7   49   71    0   98    0    0   18   92   47   29    0    0   83    0   20    0   62   75    0    0   57   33   15    0    9    0  100    0   54    0    0    0   33    0   53   67   82    0    0    2    0   93   69    0   74   58    6   12   51   34   62    0    0  
  0    1   81   31   82   64   64    0    0    0    0    0   30    0   50   18    0   10   27    0   42    0    0    0   19    0   94   44   95    0   11   41   50    0    0    0   20   42    0    1   94   21   11    0   33   47   29   45   88   78   57    0   57    0    0   88    0    0   97    0  
 43    0   12   34    0    0    0    0   83    0    3   31   87   16   12    2   61    5   18   64   53   13   13    6    0    0   44   13   36   19    0   18   22   92   98    0   10    0    1    0    4   61   12   67    0    0   22    0   34   14    0    0    9    0   16   15   78    0    0   29  
 69    3    0    0    0   78   95    0    0   93    0    0    0    0   98    0    0    0    0    0    0    0    0    0    0    0    0   96    0    0   95    3    0    0    0    0    0   29    0    0    0    0   46    0    0    8    0   14    0    0   58    0    0    0    0    0    0    0   46    0  
  0    0   38   76    0   82    0    0    0    0    0   19   17    0    0   62    0   87    1    0  100    0    0   11   80    0    0   77   28    0    0   77    8    0    0    0   61   40    0    0    2    2    0    0   91    0   92    0    2    0   49    0    0    0    0   64    0    0    4   16  
  0    2   51    0    0    9    8    1    0   33    0    0    8    0   26   13    0    6   20    0   19    0   55   23   12    9   94    0    1   33   71   25   46    0    0    0   17   33    0    0    0   62   87    0   57   77   44   69   34   57    8   28   45    0    0    1    0    0   67    0  
 95    0   49   31    0    0    0   45   54    0    0    8   45    4   97   86   21   25   40   73   14   85   72   33   67    0   11    4    0   41    0   20   59   84   95   77    1    0    8    0    6   66   86   35    0    0   34    0   32   31    0    0    8   60    2   87   93    0    0   62  
 26    0    0   48   44    0    0   72   21    0   20   76    0   20    0   84   39   92    0    4    0   24    4    0   54    0   75    0   79    0    0    0    0   53   79    0    0    0    3   65    0   68    0   65    0   11   15    0   10   40    0    0   17   21   64   94   70    0    0   90  
  0    7    0    0    0   16   53   10    0   17    0    0    0    0    1   75    0    0    0    0    0    0    0   41    0   34    0   55    0    0    0   24    0    0    0   21    0   22    0    0    0   91   49    0    0   30   76    7    0   78    0   40    0    0    0    0    0    0   77    0  
  0   29   48    0    0   71   45   30   35   14    0    0   45    0   10    5    0    0    6    0    5    0    1   60   70   87   10   30   72    0    8    0   79    0   70    0    0   82    0    0    0    7   45   34   33   36   89   89   37   50   49   48   59   96    0   18    0   56   36    0  
  0    0   33   32    0    0   12    0    0    0    0    0   18    0    0   54    0   84   95    0   43    0    0   38   49    0   47   81    8    0    0   41    0    0    0    0   65   77    0    0   78   83   17    0    2   63   85    0   76    0    3    0    0    0    0   31    0    0   63    0  
 38    0   13   90    0    0    0    0    4    0   42   51    0   19    0    5   85    2    0   92    0   35    1    0   16    0    0    0    3    5    0    0    0    0   72    0   46    0   91    0    0   30    0   15    0    0   27    0    5    0    0    0    5    0   44   41   39    0    0   42  
 75    0   22   60    0    0    0    0    8    0    0    2    0    9    0    0   11   58    0   36    0   34    0    0   22    0    0    0   81   42   63    0    0    2    0    0    2    0   31    0    0   51    0    0    0    0    0    0   19    0    0    0   57    0   93    0    0    0    0   42  
  0   83    0    0    8    0    0  100    0    0   55   33    0    0   26   12    0    0    0    0    0    0   68    0    0   35    0    0    0    9    0    0    0    0    0    0   74    0    0    3    0   42   41   29    0    0    0    0   29    4    0    1   22   40    0    0   44   66    0    0  
  2    0   68   51    0    0    0    0    0    0    0   47    8    6    0    1    0   34   26    0   31    0    0    2   27    0   28   40   92    0   92    0   26   19    4    0    0    0   28    0   25    2    0    0   63    0   52    0   99    0    1    0    0    0   78    1    0    0   31   74  
  0    0    0    0    0   59   12    0    0    0    0    0   49    0    0   28    0    0   56    0    4    0    0   28    0   30    7    4    0    0   19   84    2    0    0    0    0    0    0    0    7   94   41    0   78    9   16   24    0    0   84    0    0    0    0    6    0    0  100    0  
 30    0   11    1    0    0    0    0   35    0    0   65    0   16    0    0   79   88    0   91    0   91    0    0   60    0    0    0   73   83    0   48    0   22   36    0    0    0    0    0    0    0    0    0    0    6    0    0   73    0    0    0    0    0   95   23    0    0   24   56  
  0    0    0    0    7    0    0   97   37   80    1    0    0    0    0    0   96    8    0    0    0    0   40    0    0    0    0    0    0   81    0    0    0    0    0   97    0    0    0    0    0    0    0    3    0    0   63    0    0   39    0    4   13    5    0    0   17   69    0    0  
  0    0   83    6   96    0    0    0    0    0    0    0   88   66   92    0    0   52    6    0    2   10    0   15   25    0   38    0   15    0    0    0   23    0    0    0   79   36    0    0    0    0    0   17   69    0    0    0   91    0   34    0    0    0   85    1    0    0    0   69  
 17   64   40   10   29   67   54    7   10    0   17    0   57   20   30   10   98   64   67    0   58    5   52   14   22    0   74   87   37   96   48   70   73   11    0   57   33   58    0    0    0    0   35   98    0   12   21   20    6   78   94   89   20    0   39   37   76   81   91    0  
  0   92    0    0    0   56    2   49    0   31    0    0    0    0    2    4    0    0    0    0   50    0    6   14    9   79    0   25   40    0    8   33   21    0    0   48    0   52    0    0    0    4    0   69    0   62    4    3   45   41   74   52   25    0    0   30    0    1    8    0  
 55    0    0    0   29    0    0   70    2    0   18   98    0   75   36   10   17    0    0   95    0   60   86    0   62    0    0    0   88   27   75   98    0   16    0   79    0    0    0   13    0   70   77    0    0    0   65    0   46   38    0   97   50   47   65   13   33   34    0    0  
  0    0   96    0    0    0   82    0    0    0    0    0   64    0    0    0    0   35   30    0   97    0    0   42    0    0   29   10    0    0    0   13   30    0    0    0   69   46    0    0   33    0    0    0    0   96   24    0    0    0   55    0    0    0   96   14    0    0   58    0  
  0   50    0    0    3   44   40    0    0   62    0    0   58    0   33   79    6    0    0   70    1    0    0   26    0   70    0    8    0    0   73   15   93    0    0    0    0   20    0    0    0   73   62    0   50    0    2   54    0    0   78    0    0    0    0   16    0    0    6    0  
 58   48   74    5    0   49   19   87   12    0    2    0   32    8   59   48   93   94    8    0   11    4   13   33   84   71   41    5   28    4    1    1   73   21    0    0   12   32    0    0    0    8   22   52    1   20    0   70    8   13   57   31   15    0   60    2    9   45   52    0  
  0   81    0    0    0   46   44   37    0    4    0    0    5    0   35    0   22    0    0    0   92    0    0   99    0   56    0   47    0    0   42   96    0    0    0    0    0   52    0    0    0   93   70    0    0    7   33    0    0    0   94    0    0    0    0    0    0    0   74    0  
 35    1   17    7    0    0    0    0   49    0    0   44   65   67   39   33   89   44   22    4   54   98   78   79   24    0   81   16    1   62    0    2   13   79   21    0   91    2   65    0   13   30   19   97    0    0   59    0    0   97    0   55   46    0    1   13    1    0    0    9  
 35   90    0    0   16    0    4   60    1    0   73    0    0    0   12    6   77    0    0    0   25    0   89   39   23    0    0   32   90    5   33   57    0    0    0    2    0    0    0   51    0   18   97   51    0    0   90    0   46    0    0   42   26   66   24    7   70   89   75    0  
  0    0    0    0    0    5   21    0    0    0    0    0   68    0    0   68    0    0   92    0    1    0    0   16    0   16   21   37    0    0    0   16   34    0    0    0   42  100    0    0   95   75    1    0    9   58   73   35    0    0    0    0    0    0    0    2    0    0   65    0  
  0   63    0    0   28    0   38   73    0   94   91    0    0    0   19   18   12    0    0    0    0    0   32    0    0    0    0   75    0    0   17   26    0    0    0    7    0    0    0   20    0   33   48    7    0    0   92    0    0   82    0    0  100   14    0   91   18    1    0    0  
 23    0   39   46   22    0    0   95   79    0   13   39    0  100   24   53   14   81    0   23    0   45    7   30   31    0   33    1   64   96    0    2    0   85   58   14    0    0    0   87    0   81    2   70    0    0    3    0   93   30    0   84    0    0   61   36   65    5    0    0  
  0    0    0   77   57    0    0   18    0    0    1    0    0    0    0    0    0    0    0    0    0    0   95   36    0    0    0    0   51    0    0    0    0    0    0   55    0    0    0   14    0    0    0   49    0    0    0    0    0    0    0    2    0    0    0    0    2   70    0    0  
 33    0   48   25    0    0    0    0   33    0   17   61    0   80    0    1   58   68    0   95    0    8    8    0   91    0    0    0   93   50    0    0    0    2   77    0   84    0   47   66    0    7    0   11    0    0    7    0   71   83    0    0    9    0    0   50   70    0    0   88  
 45   22   19   96    0    0   80   92   64    0   58   47   13   14   54   48   22   57    6    6    1    3   15    1   34   14   40   22    7  100    0   94   10   49    0    0   11    1    0    0   56    9   94   64   65   52   37    0   13   61   10   53   23    0   17    0   98    0   31   62  
 75    0    0    0    3    0    0   73   29    0    3    0    0    6    2   60    5    0    0   89    0   81   81    0   46    0    0    0   44   35    0    0    0   37    0   16    0    0    0   79   16   14    0   10    0    0    1    0   27   57    0    1    2   35   94    1    0   61    0    0  
  0   53    0    0   16    0    0    3   19    0   11    0    0    0   43   60    0    0    0    0    0    0    4    0    0    0    0    0    0    0    0   18    0    0    0   80    0    0    0   16    0   42   16   97    0    0   86    0    0   52    0   31   10   94    0    1    1    0   65    0  
  0   23    0    0    0   59   70    0    0    2    0    0   69    0    4   25    0    0    9    0   32    0    0   10    0   14   96    1    0    0   39   20   79    0    4    0    0   66    0    0    0    4   96   87    2   78   88    3    0   62   35    0    0    0    0   23    0    0    0    0  
 69    0    9   48    0    0    0    0    0    0    0   73   67   42    0    0    0   21   95   91    0   79    0    0   77    0   22    0   30   57    0    0    0   80   18    0    3    0   24    0   13    0    0    0    0    0    0   13   58    0    0    0    0    0   18   75    0    0    0    0  
